c read Graph
c width = 119
c time = 77 ms
c width = 15
c time = 139 ms
c width = 14
c time = 175 ms
c width = 13
c time = 273 ms
c width = 12
c time = 393 ms
c width = 11
c time = 2659 ms
c width = 11
c time = 5010 ms
s td 119 12 132
b 1 1 2 13
b 2 2 3 13 14
b 3 10 11 23 24
b 4 3 13 14 25
b 5 10 23 24 36
b 6 97 109 110 122
b 7 108 119 120 131
b 8 97 110 122 123
b 9 108 119 130 131
b 10 3 4 5 16
b 11 3 5 15 16 26 37
b 12 3 15 25 26 37
b 13 3 14 15 25 26
b 14 5 15 16 26 28 37 39
b 15 5 16 26 28 37 39 50
b 16 26 37 38 39 50
b 17 5 16 28 37 39 50 61
b 18 37 49 50 61
b 19 15 26 27 28 39
b 20 5 16 18 28 29 39 50 61
b 21 5 18 28 29 39 40 50 61
b 22 5 18 29 30 39 40 41 50 61
b 23 5 18 30 31 39 40 41 42 50 61
b 24 5 18 31 39 40 41 42 50 52 61 63
b 25 5 18 31 41 42 50 52 53 61 63
b 26 5 18 31 42 43 50 52 53 54 61 63
b 27 5 18 31 43 44 50 52 53 54 55 61 63
b 28 5 18 31 44 50 52 53 54 55 61 62 63
b 29 5 18 31 44 52 53 54 55 61 62 63 64
b 30 5 18 31 44 53 54 55 61 62 63 64 65
b 31 5 18 31 44 54 55 61 62 63 64 65 66
b 32 5 18 31 44 55 61 62 63 64 65 66 73
b 33 5 18 31 44 55 62 63 64 65 66 73 74
b 34 5 18 31 44 55 63 64 65 66 73 74 75
b 35 5 18 31 44 55 64 65 66 73 74 75 76
b 36 5 18 31 44 55 65 66 73 74 75 76 77
b 37 5 18 31 44 55 66 73 74 75 76 77 85
b 38 5 18 31 44 55 66 74 75 76 77 85 86
b 39 5 18 31 44 55 66 75 76 77 85 86 87
b 40 5 18 31 44 55 66 76 77 85 86 87 88
b 41 5 18 31 44 55 66 77 85 86 87 88 97
b 42 5 18 31 44 55 66 77 86 87 88 97 98
b 43 5 18 31 44 55 66 77 87 88 97 98 99
b 44 5 18 31 44 55 66 77 88 97 98 99 110
b 45 5 18 31 44 55 66 77 88 97 99 110 123
b 46 5 18 31 44 55 66 77 88 99 110 111 123
b 47 5 18 31 44 55 66 77 88 99 100 111 123
b 48 5 18 31 44 55 66 77 88 89 100 111 123
b 49 5 18 31 44 55 66 77 78 89 100 111 123
b 50 5 18 31 44 55 66 67 78 89 100 111 123
b 51 5 18 31 44 55 56 67 78 89 100 111 123
b 52 5 18 31 44 56 67 78 89 100 111 112 123
b 53 5 18 31 44 56 67 78 89 100 101 112 123
b 54 5 18 31 44 56 67 78 89 90 101 112 123
b 55 5 18 31 44 56 67 78 79 90 101 112 123
b 56 5 18 31 44 56 67 68 79 90 101 112 123
b 57 5 18 31 44 56 57 68 79 90 101 112 123
b 58 5 18 31 44 57 68 79 90 101 112 123 124
b 59 5 18 31 44 57 68 79 90 101 112 113 124
b 60 5 18 31 44 57 68 79 90 101 102 113 124
b 61 5 18 31 44 57 68 79 90 91 102 113 124
b 62 5 18 31 44 57 68 79 80 91 102 113 124
b 63 5 18 31 44 57 68 69 80 91 102 113 124
b 64 5 18 31 44 57 69 80 91 102 113 124 125
b 65 5 18 31 44 57 69 80 91 102 113 114 125
b 66 5 18 31 44 57 69 80 91 102 103 114 125
b 67 5 18 31 44 57 69 80 91 92 103 114 125
b 68 5 18 31 44 57 69 80 81 92 103 114 125
b 69 5 18 31 44 57 69 70 81 92 103 114 125
b 70 5 18 31 44 57 70 81 92 103 114 125 126
b 71 5 18 31 44 57 70 81 92 103 114 115 126
b 72 5 18 31 44 57 70 81 92 103 104 115 126
b 73 5 18 31 44 57 70 81 92 93 104 115 126
b 74 5 18 31 44 57 70 81 82 93 104 115 126
b 75 5 18 31 44 57 70 82 93 104 115 126 128
b 76 5 18 31 44 57 70 82 93 104 115 117 128
b 77 5 18 31 44 57 70 82 93 104 106 117 128
b 78 5 18 31 44 57 70 82 93 94 106 117 128
b 79 5 18 31 44 57 70 82 83 94 106 117 128
b 80 5 18 31 44 57 70 72 83 94 106 117 128
b 81 5 18 31 44 57 59 70 72 83 106 117 128
b 82 59 70 71 72 83 106 117 128
b 83 39 50 51 52 63
b 84 5 16 17 18 29
b 85 104 115 116 117 128
b 86 72 83 94 96 106 117 128
b 87 83 94 96 106 107 117 128
b 88 96 106 107 117 128 130
b 89 117 128 129 130
b 90 96 106 107 117 118 130
b 91 96 107 108 118 130
b 92 107 108 118 119 130
b 93 83 94 95 96 107
b 94 72 83 84 96
b 95 93 104 105 106 117
b 96 115 126 127 128
b 97 5 9 18 20 31 44 57 59 70 72
b 98 9 20 31 44 46 57 59 70 72
b 99 46 57 58 59 70
b 100 9 20 31 33 44 46 57 59 72
b 101 9 20 33 46 48 59 72
b 102 9 20 33 35 46 48 59
b 103 35 46 47 48 59
b 104 9 20 22 33 35 46 48
b 105 9 22 35 36 48
b 106 9 10 22 35 36
b 107 10 22 23 35 36
b 108 9 20 21 22 33
b 109 22 33 34 35 46
b 110 48 59 60 72
b 111 20 31 32 33 44
b 112 33 44 45 46 57
b 113 5 7 9 18 20 31
b 114 7 18 19 20 31
b 115 7 8 9 20
b 116 5 6 7 18
b 117 120 131 132
b 118 109 121 122
b 119 11 12 24
1 2
2 4
3 119
3 5
4 13
5 107
6 118
6 8
7 117
7 9
8 45
9 92
10 11
11 14
11 12
12 13
14 19
14 15
15 17
15 16
17 20
17 18
20 84
20 21
21 22
22 23
23 24
24 83
24 25
25 26
26 27
27 28
28 29
29 30
30 31
31 32
32 33
33 34
34 35
35 36
36 37
37 38
38 39
39 40
40 41
41 42
42 43
43 44
44 45
45 46
46 47
47 48
48 49
49 50
50 51
51 52
52 53
53 54
54 55
55 56
56 57
57 58
58 59
59 60
60 61
61 62
62 63
63 64
64 65
65 66
66 67
67 68
68 69
69 70
70 71
71 72
72 73
73 74
74 75
75 96
75 76
76 85
76 77
77 95
77 78
78 79
79 80
80 86
80 81
81 97
81 82
86 94
86 87
87 93
87 88
88 89
88 90
90 91
91 92
97 113
97 98
98 99
98 100
100 111
100 112
100 101
101 110
101 102
102 103
102 104
104 105
104 108
104 109
105 106
106 107
113 116
113 115
113 114
